/*********************************************
 * OPL 12.6.2.0 Data
 * Author: amroka18
 * Creation Date: 19 déc. 2019 at 16:13:38
 *********************************************/

Nbvariables = 4;
Nbcontraintes =3;

cost=[700,400,900,1000];
A = [[2,3,1,2],[1,4,2,2],[2,1,1,1]];
B=[800,1000,1000]; 